min: T;

T > T1;
T > T2;
T > T3;
T > T4;

d1 + d2 + d3 + d4 = 200;
d43 + d42 = d4;

tk12 = 5*x12 + 3*d2 + 3*d3 + 3*d4;
tk23 = 5*x23 + 3*d3 + 3*d43;
tk24 = 5*x24 + 3*d42;
tk34 = 5*x34 + 3*d43;

T1 > tk12 + 10*d1;

T2 > tk12 + tk23 + tk24 + 4*d2;
T2 > tk12 + tk23 + tk24 + tk34 - 2000000*y2;

T3 > tk12 + tk23 + tk34 + 10*d3 + tk24 - 2000000*y1;
T3 > tk12 + tk23 + tk34 + 10*d3;
T3 > tk12 + tk23 + tk34 + tk24 - 2000000 + 2000000*y2;

T4 > tk12 + tk24 + tk34 + tk23 - 2000000 + 2000000*y1 + 10*d4;
T4 > tk12 + tk24 + tk34 - 2000000*y1 + 10*d4;
T4 > tk12 + tk24 + tk34 + tk23 - 2000000*y1 + 10*d42;


x12 < 1;
200*x12 > d2 + d3 + d4;
x23 < 1;
200*x23 > d3 + d43;
x24 < 1;
200*x24 > d42;
x34 < 1;
200*x34 > d43;

y1 < 1;
y2 < 1;
y1 + y2 > 1;

int d1, d2, d3, d42, d43;
int x12, x23, x24, x34;
int y1, y2;
